27 31 63 64 11 19 62 88 7 18 8 84 17 91 100 93 60 89 
28 76 50 20 66 35 77 
53 87 94 6 
72 39 67 23 56 74 4 55 25 24 80 
95 59 92 98 14 38 44 16 61 86 85 99 96 
21 73 75 22 41 57 43 37 97 13 58 
52 69 30 90 10 32 70 1 
5 83 45 82 47 36 49 46 48 
33 65 71 51 40 26 
42 15 2 12 29 79 81 9 78 34 3 68 54 
